c Software verification instances generated by
c Calysto static checker. For more information
c contact Domagoj Babic.
c Location in code: /work/benchmarks/SOURCES/gzip-1.2.4/gzip.c:439
p cnf 779 1367
1 0
-2 0
-35 0
-36 0
-37 0
-38 0
-39 0
-40 0
-41 0
-42 0
-43 0
-44 0
-45 0
-46 0
-47 0
-48 0
-49 0
-50 0
-51 0
-52 0
-53 0
-54 0
-55 0
-56 0
-57 0
-58 0
-59 0
-60 0
-61 0
-62 0
-63 0
-64 0
-65 0
-66 0
132 0
-133 0
-134 0
135 0
-136 0
-137 0
-138 0
-139 0
-140 0
-141 0
-142 0
-143 0
-144 0
-145 0
-146 0
-147 0
-148 0
-149 0
-150 0
-151 0
-152 0
-153 0
-154 0
-155 0
-156 0
-157 0
-158 0
-159 0
-160 0
-161 0
-162 0
-163 0
-164 0
-165 0
-166 0
-167 0
-168 0
-169 0
-170 0
-171 0
-172 0
-173 0
-174 0
-175 0
-176 0
-177 0
-178 0
-179 0
-180 0
-181 0
-182 0
-183 0
-184 0
-185 0
-186 0
-187 0
-188 0
-189 0
-190 0
-191 0
-192 0
-193 0
-194 0
-195 0
-196 0
-392 0
-396 0
-404 0
-408 0
-412 0
-416 0
-420 0
-424 0
-428 0
-432 0
-436 0
-440 0
-444 0
-448 0
-452 0
-456 0
-460 0
-464 0
-468 0
-472 0
-476 0
-480 0
-484 0
-488 0
-492 0
-496 0
-500 0
-504 0
-508 0
-512 0
-516 0
-520 0
-524 0
-528 0
-532 0
-536 0
-540 0
-544 0
-548 0
-552 0
-556 0
-560 0
-564 0
-568 0
-572 0
-576 0
-580 0
-584 0
-588 0
-592 0
-596 0
-600 0
-604 0
-608 0
-612 0
-616 0
-620 0
-624 0
-628 0
-632 0
-636 0
-640 0
-644 0
-681 0
-682 0
-683 0
-684 0
-685 0
-686 0
-687 0
-688 0
-689 0
-690 0
-691 0
-692 0
-693 0
-694 0
-695 0
-696 0
-697 0
-698 0
-699 0
-700 0
-701 0
-702 0
-703 0
-704 0
-705 0
-706 0
-707 0
-708 0
-709 0
-710 0
-711 0
-712 0
-779 0
3 68 0
-3 -68 0
4 69 0
-4 -69 0
5 70 0
-5 -70 0
6 71 0
-6 -71 0
7 72 0
-7 -72 0
8 73 0
-8 -73 0
9 74 0
-9 -74 0
10 75 0
-10 -75 0
11 76 0
-11 -76 0
12 77 0
-12 -77 0
13 78 0
-13 -78 0
14 79 0
-14 -79 0
15 80 0
-15 -80 0
16 81 0
-16 -81 0
17 82 0
-17 -82 0
18 83 0
-18 -83 0
19 84 0
-19 -84 0
20 85 0
-20 -85 0
21 86 0
-21 -86 0
22 87 0
-22 -87 0
23 88 0
-23 -88 0
24 89 0
-24 -89 0
25 90 0
-25 -90 0
26 91 0
-26 -91 0
27 92 0
-27 -92 0
28 93 0
-28 -93 0
29 94 0
-29 -94 0
30 95 0
-30 -95 0
31 96 0
-31 -96 0
32 97 0
-32 -97 0
33 98 0
-33 -98 0
34 99 0
-34 -99 0
-68 100 0
68 -100 0
-69 -100 101 0
100 -101 0
69 -101 0
-70 -101 102 0
101 -102 0
70 -102 0
-71 -102 103 0
102 -103 0
71 -103 0
-72 -103 104 0
103 -104 0
72 -104 0
-73 -104 105 0
104 -105 0
73 -105 0
-74 -105 106 0
105 -106 0
74 -106 0
-75 -106 107 0
106 -107 0
75 -107 0
-76 -107 108 0
107 -108 0
76 -108 0
-77 -108 109 0
108 -109 0
77 -109 0
-78 -109 110 0
109 -110 0
78 -110 0
-79 -110 111 0
110 -111 0
79 -111 0
-80 -111 112 0
111 -112 0
80 -112 0
-81 -112 113 0
112 -113 0
81 -113 0
-82 -113 114 0
113 -114 0
82 -114 0
-83 -114 115 0
114 -115 0
83 -115 0
-84 -115 116 0
115 -116 0
84 -116 0
-85 -116 117 0
116 -117 0
85 -117 0
-86 -117 118 0
117 -118 0
86 -118 0
-87 -118 119 0
118 -119 0
87 -119 0
-88 -119 120 0
119 -120 0
88 -120 0
-89 -120 121 0
120 -121 0
89 -121 0
-90 -121 122 0
121 -122 0
90 -122 0
-91 -122 123 0
122 -123 0
91 -123 0
-92 -123 124 0
123 -124 0
92 -124 0
-93 -124 125 0
124 -125 0
93 -125 0
-94 -125 126 0
125 -126 0
94 -126 0
-95 -126 127 0
126 -127 0
95 -127 0
-96 -127 128 0
127 -128 0
96 -128 0
-97 -128 129 0
128 -129 0
97 -129 0
-98 -129 130 0
129 -130 0
98 -130 0
-99 -130 131 0
130 -131 0
99 -131 0
-67 131 0
67 -131 0
197 326 0
-197 -326 0
198 327 0
-198 -327 0
199 328 0
-199 -328 0
200 329 0
-200 -329 0
201 330 0
-201 -330 0
202 331 0
-202 -331 0
203 332 0
-203 -332 0
204 333 0
-204 -333 0
205 334 0
-205 -334 0
206 335 0
-206 -335 0
207 336 0
-207 -336 0
208 337 0
-208 -337 0
209 338 0
-209 -338 0
210 339 0
-210 -339 0
211 340 0
-211 -340 0
212 341 0
-212 -341 0
213 342 0
-213 -342 0
214 343 0
-214 -343 0
215 344 0
-215 -344 0
216 345 0
-216 -345 0
217 346 0
-217 -346 0
218 347 0
-218 -347 0
219 348 0
-219 -348 0
220 349 0
-220 -349 0
221 350 0
-221 -350 0
222 351 0
-222 -351 0
223 352 0
-223 -352 0
224 353 0
-224 -353 0
225 354 0
-225 -354 0
226 355 0
-226 -355 0
227 356 0
-227 -356 0
228 357 0
-228 -357 0
229 358 0
-229 -358 0
230 359 0
-230 -359 0
231 360 0
-231 -360 0
232 361 0
-232 -361 0
233 362 0
-233 -362 0
234 363 0
-234 -363 0
235 364 0
-235 -364 0
236 365 0
-236 -365 0
237 366 0
-237 -366 0
238 367 0
-238 -367 0
239 368 0
-239 -368 0
240 369 0
-240 -369 0
241 370 0
-241 -370 0
242 371 0
-242 -371 0
243 372 0
-243 -372 0
244 373 0
-244 -373 0
245 374 0
-245 -374 0
246 375 0
-246 -375 0
247 376 0
-247 -376 0
248 377 0
-248 -377 0
249 378 0
-249 -378 0
250 379 0
-250 -379 0
251 380 0
-251 -380 0
252 381 0
-252 -381 0
253 382 0
-253 -382 0
254 383 0
-254 -383 0
255 384 0
-255 -384 0
256 385 0
-256 -385 0
257 386 0
-257 -386 0
258 387 0
-258 -387 0
259 388 0
-259 -388 0
260 389 0
-260 -389 0
-326 390 0
326 -390 0
-390 391 0
390 -391 0
391 -393 0
-391 393 0
262 390 0
-262 -390 0
-327 394 0
327 -394 0
-393 -394 395 0
394 -395 0
393 -395 0
395 -397 0
-395 397 0
263 393 -394 0
263 -393 394 0
-263 393 394 0
-263 -393 -394 0
328 398 0
-328 -398 0
-328 400 0
328 -400 0
-397 -398 399 0
398 -399 0
397 -399 0
399 400 -401 0
-399 401 0
-400 401 0
264 397 -398 0
264 -397 398 0
-264 397 398 0
-264 -397 -398 0
-329 402 0
329 -402 0
-401 -402 403 0
402 -403 0
401 -403 0
403 -405 0
-403 405 0
265 401 -402 0
265 -401 402 0
-265 401 402 0
-265 -401 -402 0
-330 406 0
330 -406 0
-405 -406 407 0
406 -407 0
405 -407 0
407 -409 0
-407 409 0
266 405 -406 0
266 -405 406 0
-266 405 406 0
-266 -405 -406 0
-331 410 0
331 -410 0
-409 -410 411 0
410 -411 0
409 -411 0
411 -413 0
-411 413 0
267 409 -410 0
267 -409 410 0
-267 409 410 0
-267 -409 -410 0
-332 414 0
332 -414 0
-413 -414 415 0
414 -415 0
413 -415 0
415 -417 0
-415 417 0
268 413 -414 0
268 -413 414 0
-268 413 414 0
-268 -413 -414 0
-333 418 0
333 -418 0
-417 -418 419 0
418 -419 0
417 -419 0
419 -421 0
-419 421 0
269 417 -418 0
269 -417 418 0
-269 417 418 0
-269 -417 -418 0
-334 422 0
334 -422 0
-421 -422 423 0
422 -423 0
421 -423 0
423 -425 0
-423 425 0
270 421 -422 0
270 -421 422 0
-270 421 422 0
-270 -421 -422 0
-335 426 0
335 -426 0
-425 -426 427 0
426 -427 0
425 -427 0
427 -429 0
-427 429 0
271 425 -426 0
271 -425 426 0
-271 425 426 0
-271 -425 -426 0
-336 430 0
336 -430 0
-429 -430 431 0
430 -431 0
429 -431 0
431 -433 0
-431 433 0
272 429 -430 0
272 -429 430 0
-272 429 430 0
-272 -429 -430 0
-337 434 0
337 -434 0
-433 -434 435 0
434 -435 0
433 -435 0
435 -437 0
-435 437 0
273 433 -434 0
273 -433 434 0
-273 433 434 0
-273 -433 -434 0
-338 438 0
338 -438 0
-437 -438 439 0
438 -439 0
437 -439 0
439 -441 0
-439 441 0
274 437 -438 0
274 -437 438 0
-274 437 438 0
-274 -437 -438 0
-339 442 0
339 -442 0
-441 -442 443 0
442 -443 0
441 -443 0
443 -445 0
-443 445 0
275 441 -442 0
275 -441 442 0
-275 441 442 0
-275 -441 -442 0
-340 446 0
340 -446 0
-445 -446 447 0
446 -447 0
445 -447 0
447 -449 0
-447 449 0
276 445 -446 0
276 -445 446 0
-276 445 446 0
-276 -445 -446 0
-341 450 0
341 -450 0
-449 -450 451 0
450 -451 0
449 -451 0
451 -453 0
-451 453 0
277 449 -450 0
277 -449 450 0
-277 449 450 0
-277 -449 -450 0
-342 454 0
342 -454 0
-453 -454 455 0
454 -455 0
453 -455 0
455 -457 0
-455 457 0
278 453 -454 0
278 -453 454 0
-278 453 454 0
-278 -453 -454 0
-343 458 0
343 -458 0
-457 -458 459 0
458 -459 0
457 -459 0
459 -461 0
-459 461 0
279 457 -458 0
279 -457 458 0
-279 457 458 0
-279 -457 -458 0
-344 462 0
344 -462 0
-461 -462 463 0
462 -463 0
461 -463 0
463 -465 0
-463 465 0
280 461 -462 0
280 -461 462 0
-280 461 462 0
-280 -461 -462 0
-345 466 0
345 -466 0
-465 -466 467 0
466 -467 0
465 -467 0
467 -469 0
-467 469 0
281 465 -466 0
281 -465 466 0
-281 465 466 0
-281 -465 -466 0
-346 470 0
346 -470 0
-469 -470 471 0
470 -471 0
469 -471 0
471 -473 0
-471 473 0
282 469 -470 0
282 -469 470 0
-282 469 470 0
-282 -469 -470 0
-347 474 0
347 -474 0
-473 -474 475 0
474 -475 0
473 -475 0
475 -477 0
-475 477 0
283 473 -474 0
283 -473 474 0
-283 473 474 0
-283 -473 -474 0
-348 478 0
348 -478 0
-477 -478 479 0
478 -479 0
477 -479 0
479 -481 0
-479 481 0
284 477 -478 0
284 -477 478 0
-284 477 478 0
-284 -477 -478 0
-349 482 0
349 -482 0
-481 -482 483 0
482 -483 0
481 -483 0
483 -485 0
-483 485 0
285 481 -482 0
285 -481 482 0
-285 481 482 0
-285 -481 -482 0
-350 486 0
350 -486 0
-485 -486 487 0
486 -487 0
485 -487 0
487 -489 0
-487 489 0
286 485 -486 0
286 -485 486 0
-286 485 486 0
-286 -485 -486 0
-351 490 0
351 -490 0
-489 -490 491 0
490 -491 0
489 -491 0
491 -493 0
-491 493 0
287 489 -490 0
287 -489 490 0
-287 489 490 0
-287 -489 -490 0
-352 494 0
352 -494 0
-493 -494 495 0
494 -495 0
493 -495 0
495 -497 0
-495 497 0
288 493 -494 0
288 -493 494 0
-288 493 494 0
-288 -493 -494 0
-353 498 0
353 -498 0
-497 -498 499 0
498 -499 0
497 -499 0
499 -501 0
-499 501 0
289 497 -498 0
289 -497 498 0
-289 497 498 0
-289 -497 -498 0
-354 502 0
354 -502 0
-501 -502 503 0
502 -503 0
501 -503 0
503 -505 0
-503 505 0
290 501 -502 0
290 -501 502 0
-290 501 502 0
-290 -501 -502 0
-355 506 0
355 -506 0
-505 -506 507 0
506 -507 0
505 -507 0
507 -509 0
-507 509 0
291 505 -506 0
291 -505 506 0
-291 505 506 0
-291 -505 -506 0
-356 510 0
356 -510 0
-509 -510 511 0
510 -511 0
509 -511 0
511 -513 0
-511 513 0
292 509 -510 0
292 -509 510 0
-292 509 510 0
-292 -509 -510 0
-357 514 0
357 -514 0
-513 -514 515 0
514 -515 0
513 -515 0
515 -517 0
-515 517 0
293 513 -514 0
293 -513 514 0
-293 513 514 0
-293 -513 -514 0
-358 518 0
358 -518 0
-517 -518 519 0
518 -519 0
517 -519 0
519 -521 0
-519 521 0
294 517 -518 0
294 -517 518 0
-294 517 518 0
-294 -517 -518 0
-359 522 0
359 -522 0
-521 -522 523 0
522 -523 0
521 -523 0
523 -525 0
-523 525 0
295 521 -522 0
295 -521 522 0
-295 521 522 0
-295 -521 -522 0
-360 526 0
360 -526 0
-525 -526 527 0
526 -527 0
525 -527 0
527 -529 0
-527 529 0
296 525 -526 0
296 -525 526 0
-296 525 526 0
-296 -525 -526 0
-361 530 0
361 -530 0
-529 -530 531 0
530 -531 0
529 -531 0
531 -533 0
-531 533 0
297 529 -530 0
297 -529 530 0
-297 529 530 0
-297 -529 -530 0
-362 534 0
362 -534 0
-533 -534 535 0
534 -535 0
533 -535 0
535 -537 0
-535 537 0
298 533 -534 0
298 -533 534 0
-298 533 534 0
-298 -533 -534 0
-363 538 0
363 -538 0
-537 -538 539 0
538 -539 0
537 -539 0
539 -541 0
-539 541 0
299 537 -538 0
299 -537 538 0
-299 537 538 0
-299 -537 -538 0
-364 542 0
364 -542 0
-541 -542 543 0
542 -543 0
541 -543 0
543 -545 0
-543 545 0
300 541 -542 0
300 -541 542 0
-300 541 542 0
-300 -541 -542 0
-365 546 0
365 -546 0
-545 -546 547 0
546 -547 0
545 -547 0
547 -549 0
-547 549 0
301 545 -546 0
301 -545 546 0
-301 545 546 0
-301 -545 -546 0
-366 550 0
366 -550 0
-549 -550 551 0
550 -551 0
549 -551 0
551 -553 0
-551 553 0
302 549 -550 0
302 -549 550 0
-302 549 550 0
-302 -549 -550 0
-367 554 0
367 -554 0
-553 -554 555 0
554 -555 0
553 -555 0
555 -557 0
-555 557 0
303 553 -554 0
303 -553 554 0
-303 553 554 0
-303 -553 -554 0
-368 558 0
368 -558 0
-557 -558 559 0
558 -559 0
557 -559 0
559 -561 0
-559 561 0
304 557 -558 0
304 -557 558 0
-304 557 558 0
-304 -557 -558 0
-369 562 0
369 -562 0
-561 -562 563 0
562 -563 0
561 -563 0
563 -565 0
-563 565 0
305 561 -562 0
305 -561 562 0
-305 561 562 0
-305 -561 -562 0
-370 566 0
370 -566 0
-565 -566 567 0
566 -567 0
565 -567 0
567 -569 0
-567 569 0
306 565 -566 0
306 -565 566 0
-306 565 566 0
-306 -565 -566 0
-371 570 0
371 -570 0
-569 -570 571 0
570 -571 0
569 -571 0
571 -573 0
-571 573 0
307 569 -570 0
307 -569 570 0
-307 569 570 0
-307 -569 -570 0
-372 574 0
372 -574 0
-573 -574 575 0
574 -575 0
573 -575 0
575 -577 0
-575 577 0
308 573 -574 0
308 -573 574 0
-308 573 574 0
-308 -573 -574 0
-373 578 0
373 -578 0
-577 -578 579 0
578 -579 0
577 -579 0
579 -581 0
-579 581 0
309 577 -578 0
309 -577 578 0
-309 577 578 0
-309 -577 -578 0
-374 582 0
374 -582 0
-581 -582 583 0
582 -583 0
581 -583 0
583 -585 0
-583 585 0
310 581 -582 0
310 -581 582 0
-310 581 582 0
-310 -581 -582 0
-375 586 0
375 -586 0
-585 -586 587 0
586 -587 0
585 -587 0
587 -589 0
-587 589 0
311 585 -586 0
311 -585 586 0
-311 585 586 0
-311 -585 -586 0
-376 590 0
376 -590 0
-589 -590 591 0
590 -591 0
589 -591 0
591 -593 0
-591 593 0
312 589 -590 0
312 -589 590 0
-312 589 590 0
-312 -589 -590 0
-377 594 0
377 -594 0
-593 -594 595 0
594 -595 0
593 -595 0
595 -597 0
-595 597 0
313 593 -594 0
313 -593 594 0
-313 593 594 0
-313 -593 -594 0
-378 598 0
378 -598 0
-597 -598 599 0
598 -599 0
597 -599 0
599 -601 0
-599 601 0
314 597 -598 0
314 -597 598 0
-314 597 598 0
-314 -597 -598 0
-379 602 0
379 -602 0
-601 -602 603 0
602 -603 0
601 -603 0
603 -605 0
-603 605 0
315 601 -602 0
315 -601 602 0
-315 601 602 0
-315 -601 -602 0
-380 606 0
380 -606 0
-605 -606 607 0
606 -607 0
605 -607 0
607 -609 0
-607 609 0
316 605 -606 0
316 -605 606 0
-316 605 606 0
-316 -605 -606 0
-381 610 0
381 -610 0
-609 -610 611 0
610 -611 0
609 -611 0
611 -613 0
-611 613 0
317 609 -610 0
317 -609 610 0
-317 609 610 0
-317 -609 -610 0
-382 614 0
382 -614 0
-613 -614 615 0
614 -615 0
613 -615 0
615 -617 0
-615 617 0
318 613 -614 0
318 -613 614 0
-318 613 614 0
-318 -613 -614 0
-383 618 0
383 -618 0
-617 -618 619 0
618 -619 0
617 -619 0
619 -621 0
-619 621 0
319 617 -618 0
319 -617 618 0
-319 617 618 0
-319 -617 -618 0
-384 622 0
384 -622 0
-621 -622 623 0
622 -623 0
621 -623 0
623 -625 0
-623 625 0
320 621 -622 0
320 -621 622 0
-320 621 622 0
-320 -621 -622 0
-385 626 0
385 -626 0
-625 -626 627 0
626 -627 0
625 -627 0
627 -629 0
-627 629 0
321 625 -626 0
321 -625 626 0
-321 625 626 0
-321 -625 -626 0
-386 630 0
386 -630 0
-629 -630 631 0
630 -631 0
629 -631 0
631 -633 0
-631 633 0
322 629 -630 0
322 -629 630 0
-322 629 630 0
-322 -629 -630 0
-387 634 0
387 -634 0
-633 -634 635 0
634 -635 0
633 -635 0
635 -637 0
-635 637 0
323 633 -634 0
323 -633 634 0
-323 633 634 0
-323 -633 -634 0
-388 638 0
388 -638 0
-637 -638 639 0
638 -639 0
637 -639 0
639 -641 0
-639 641 0
324 637 -638 0
324 -637 638 0
-324 637 638 0
-324 -637 -638 0
-389 642 0
389 -642 0
-641 -642 643 0
642 -643 0
641 -643 0
643 -645 0
-643 645 0
325 641 -642 0
325 -641 642 0
-325 641 642 0
-325 -641 -642 0
641 -645 646 0
-641 645 646 0
641 645 -646 0
-641 -645 -646 0
261 325 -646 0
261 -325 646 0
-261 325 646 0
-261 -325 -646 0
-261 647 0
261 -647 0
-67 -647 648 0
67 -648 0
647 -648 0
649 715 0
-649 -715 0
650 716 0
-650 -716 0
651 717 0
-651 -717 0
652 718 0
-652 -718 0
653 719 0
-653 -719 0
654 720 0
-654 -720 0
655 721 0
-655 -721 0
656 722 0
-656 -722 0
657 723 0
-657 -723 0
658 724 0
-658 -724 0
659 725 0
-659 -725 0
660 726 0
-660 -726 0
661 727 0
-661 -727 0
662 728 0
-662 -728 0
663 729 0
-663 -729 0
664 730 0
-664 -730 0
665 731 0
-665 -731 0
666 732 0
-666 -732 0
667 733 0
-667 -733 0
668 734 0
-668 -734 0
669 735 0
-669 -735 0
670 736 0
-670 -736 0
671 737 0
-671 -737 0
672 738 0
-672 -738 0
673 739 0
-673 -739 0
674 740 0
-674 -740 0
675 741 0
-675 -741 0
676 742 0
-676 -742 0
677 743 0
-677 -743 0
678 744 0
-678 -744 0
679 745 0
-679 -745 0
680 746 0
-680 -746 0
-715 747 0
715 -747 0
-716 -747 748 0
747 -748 0
716 -748 0
-717 -748 749 0
748 -749 0
717 -749 0
-718 -749 750 0
749 -750 0
718 -750 0
-719 -750 751 0
750 -751 0
719 -751 0
-720 -751 752 0
751 -752 0
720 -752 0
-721 -752 753 0
752 -753 0
721 -753 0
-722 -753 754 0
753 -754 0
722 -754 0
-723 -754 755 0
754 -755 0
723 -755 0
-724 -755 756 0
755 -756 0
724 -756 0
-725 -756 757 0
756 -757 0
725 -757 0
-726 -757 758 0
757 -758 0
726 -758 0
-727 -758 759 0
758 -759 0
727 -759 0
-728 -759 760 0
759 -760 0
728 -760 0
-729 -760 761 0
760 -761 0
729 -761 0
-730 -761 762 0
761 -762 0
730 -762 0
-731 -762 763 0
762 -763 0
731 -763 0
-732 -763 764 0
763 -764 0
732 -764 0
-733 -764 765 0
764 -765 0
733 -765 0
-734 -765 766 0
765 -766 0
734 -766 0
-735 -766 767 0
766 -767 0
735 -767 0
-736 -767 768 0
767 -768 0
736 -768 0
-737 -768 769 0
768 -769 0
737 -769 0
-738 -769 770 0
769 -770 0
738 -770 0
-739 -770 771 0
770 -771 0
739 -771 0
-740 -771 772 0
771 -772 0
740 -772 0
-741 -772 773 0
772 -773 0
741 -773 0
-742 -773 774 0
773 -774 0
742 -774 0
-743 -774 775 0
774 -775 0
743 -775 0
-744 -775 776 0
775 -776 0
744 -776 0
-745 -776 777 0
776 -777 0
745 -777 0
-746 -777 778 0
777 -778 0
746 -778 0
-714 778 0
714 -778 0
713 714 0
-713 -714 0
648 779 0
-713 779 0
-648 713 -779 0
